NAME : prob25d.7069.tour
COMMENT : Cost = 0_7069
COMMENT : Found by LKH [Keld Helsgaun] Sun Sep 17 01:06:30 2017
TYPE : TOUR
DIMENSION : 51
TOUR_SECTION
1
48
45
27
46
36
34
31
32
51
23
26
42
38
2
37
13
47
44
7
29
40
28
30
49
41
24
21
35
3
20
9
43
33
12
8
5
18
10
17
39
4
22
50
25
11
14
16
19
6
15
-1
EOF
